========================================================== 
File name: C:\DEGR\assets\definitions\MSRCPSP_noconst\500_40_0_0.def
Creation date: Sat May 13 10:38:33 CEST 2023
Website: http://imopse.ii.pwr.edu.pl/ 
Reference: 
Myszkowski P. B., Skowronski M. E., Olech L., Oslizlo K., 
Hybrid Ant Colony Optimization in solving Multi-Skill Resource-Constrained Project Scheduling Problem, 
Soft Computing, DOI: DOI 10.1007/s00500-014-1455-x 
========================================================== 
General characteristics: 
Tasks: 500
Resources: 40
Precedence relations: 0
Number of skill types: 1
========================================================== 
ResourceID 	 Salary 	 Skills 
1	 	 	13.8	 	 Q0: 0 	 
2	 	 	77.3	 	 Q0: 0 	 
3	 	 	93.4	 	 Q0: 0 	 
4	 	 	96.7	 	 Q0: 0 	 
5	 	 	58.7	 	 Q0: 0 	 
6	 	 	37.1	 	 Q0: 0 	 
7	 	 	29.7	 	 Q0: 0 	 
8	 	 	55.2	 	 Q0: 0 	 
9	 	 	43.4	 	 Q0: 0 	 
10	 	 	68.7	 	 Q0: 0 	 
11	 	 	30.1	 	 Q0: 0 	 
12	 	 	91.2	 	 Q0: 0 	 
13	 	 	97.2	 	 Q0: 0 	 
14	 	 	75.3	 	 Q0: 0 	 
15	 	 	96.8	 	 Q0: 0 	 
16	 	 	15.8	 	 Q0: 0 	 
17	 	 	57.9	 	 Q0: 0 	 
18	 	 	74.7	 	 Q0: 0 	 
19	 	 	28.1	 	 Q0: 0 	 
20	 	 	23.5	 	 Q0: 0 	 
21	 	 	87.9	 	 Q0: 0 	 
22	 	 	60.1	 	 Q0: 0 	 
23	 	 	37.1	 	 Q0: 0 	 
24	 	 	61.1	 	 Q0: 0 	 
25	 	 	80.1	 	 Q0: 0 	 
26	 	 	37.0	 	 Q0: 0 	 
27	 	 	27.5	 	 Q0: 0 	 
28	 	 	72.5	 	 Q0: 0 	 
29	 	 	21.9	 	 Q0: 0 	 
30	 	 	20.1	 	 Q0: 0 	 
31	 	 	63.1	 	 Q0: 0 	 
32	 	 	16.2	 	 Q0: 0 	 
33	 	 	86.3	 	 Q0: 0 	 
34	 	 	72.0	 	 Q0: 0 	 
35	 	 	92.6	 	 Q0: 0 	 
36	 	 	18.2	 	 Q0: 0 	 
37	 	 	50.8	 	 Q0: 0 	 
38	 	 	35.7	 	 Q0: 0 	 
39	 	 	71.3	 	 Q0: 0 	 
40	 	 	52.6	 	 Q0: 0 	 
========================================================== 
TaskID 	 Duration 	 Skill 	 Predecessor IDs 
1	 	 	32	 Q0: 0	 	
2	 	 	39	 Q0: 0	 	
3	 	 	35	 Q0: 0	 	
4	 	 	30	 Q0: 0	 	
5	 	 	28	 Q0: 0	 	
6	 	 	37	 Q0: 0	 	
7	 	 	17	 Q0: 0	 	
8	 	 	34	 Q0: 0	 	
9	 	 	26	 Q0: 0	 	
10	 	 	31	 Q0: 0	 	
11	 	 	31	 Q0: 0	 	
12	 	 	11	 Q0: 0	 	
13	 	 	35	 Q0: 0	 	
14	 	 	20	 Q0: 0	 	
15	 	 	20	 Q0: 0	 	
16	 	 	31	 Q0: 0	 	
17	 	 	14	 Q0: 0	 	
18	 	 	19	 Q0: 0	 	
19	 	 	26	 Q0: 0	 	
20	 	 	17	 Q0: 0	 	
21	 	 	38	 Q0: 0	 	
22	 	 	34	 Q0: 0	 	
23	 	 	32	 Q0: 0	 	
24	 	 	23	 Q0: 0	 	
25	 	 	28	 Q0: 0	 	
26	 	 	18	 Q0: 0	 	
27	 	 	37	 Q0: 0	 	
28	 	 	40	 Q0: 0	 	
29	 	 	39	 Q0: 0	 	
30	 	 	20	 Q0: 0	 	
31	 	 	27	 Q0: 0	 	
32	 	 	26	 Q0: 0	 	
33	 	 	24	 Q0: 0	 	
34	 	 	16	 Q0: 0	 	
35	 	 	35	 Q0: 0	 	
36	 	 	34	 Q0: 0	 	
37	 	 	30	 Q0: 0	 	
38	 	 	13	 Q0: 0	 	
39	 	 	20	 Q0: 0	 	
40	 	 	18	 Q0: 0	 	
41	 	 	35	 Q0: 0	 	
42	 	 	26	 Q0: 0	 	
43	 	 	18	 Q0: 0	 	
44	 	 	33	 Q0: 0	 	
45	 	 	39	 Q0: 0	 	
46	 	 	37	 Q0: 0	 	
47	 	 	18	 Q0: 0	 	
48	 	 	16	 Q0: 0	 	
49	 	 	33	 Q0: 0	 	
50	 	 	26	 Q0: 0	 	
51	 	 	34	 Q0: 0	 	
52	 	 	20	 Q0: 0	 	
53	 	 	33	 Q0: 0	 	
54	 	 	29	 Q0: 0	 	
55	 	 	40	 Q0: 0	 	
56	 	 	39	 Q0: 0	 	
57	 	 	11	 Q0: 0	 	
58	 	 	20	 Q0: 0	 	
59	 	 	13	 Q0: 0	 	
60	 	 	21	 Q0: 0	 	
61	 	 	28	 Q0: 0	 	
62	 	 	25	 Q0: 0	 	
63	 	 	19	 Q0: 0	 	
64	 	 	23	 Q0: 0	 	
65	 	 	11	 Q0: 0	 	
66	 	 	22	 Q0: 0	 	
67	 	 	38	 Q0: 0	 	
68	 	 	16	 Q0: 0	 	
69	 	 	13	 Q0: 0	 	
70	 	 	28	 Q0: 0	 	
71	 	 	27	 Q0: 0	 	
72	 	 	37	 Q0: 0	 	
73	 	 	29	 Q0: 0	 	
74	 	 	37	 Q0: 0	 	
75	 	 	16	 Q0: 0	 	
76	 	 	20	 Q0: 0	 	
77	 	 	31	 Q0: 0	 	
78	 	 	32	 Q0: 0	 	
79	 	 	40	 Q0: 0	 	
80	 	 	11	 Q0: 0	 	
81	 	 	28	 Q0: 0	 	
82	 	 	10	 Q0: 0	 	
83	 	 	33	 Q0: 0	 	
84	 	 	39	 Q0: 0	 	
85	 	 	23	 Q0: 0	 	
86	 	 	9	 Q0: 0	 	
87	 	 	11	 Q0: 0	 	
88	 	 	15	 Q0: 0	 	
89	 	 	26	 Q0: 0	 	
90	 	 	28	 Q0: 0	 	
91	 	 	38	 Q0: 0	 	
92	 	 	24	 Q0: 0	 	
93	 	 	34	 Q0: 0	 	
94	 	 	9	 Q0: 0	 	
95	 	 	25	 Q0: 0	 	
96	 	 	27	 Q0: 0	 	
97	 	 	20	 Q0: 0	 	
98	 	 	20	 Q0: 0	 	
99	 	 	20	 Q0: 0	 	
100	 	 	15	 Q0: 0	 	
101	 	 	38	 Q0: 0	 	
102	 	 	30	 Q0: 0	 	
103	 	 	36	 Q0: 0	 	
104	 	 	30	 Q0: 0	 	
105	 	 	9	 Q0: 0	 	
106	 	 	34	 Q0: 0	 	
107	 	 	18	 Q0: 0	 	
108	 	 	31	 Q0: 0	 	
109	 	 	17	 Q0: 0	 	
110	 	 	21	 Q0: 0	 	
111	 	 	23	 Q0: 0	 	
112	 	 	13	 Q0: 0	 	
113	 	 	36	 Q0: 0	 	
114	 	 	17	 Q0: 0	 	
115	 	 	36	 Q0: 0	 	
116	 	 	31	 Q0: 0	 	
117	 	 	18	 Q0: 0	 	
118	 	 	32	 Q0: 0	 	
119	 	 	13	 Q0: 0	 	
120	 	 	40	 Q0: 0	 	
121	 	 	34	 Q0: 0	 	
122	 	 	18	 Q0: 0	 	
123	 	 	24	 Q0: 0	 	
124	 	 	13	 Q0: 0	 	
125	 	 	31	 Q0: 0	 	
126	 	 	11	 Q0: 0	 	
127	 	 	14	 Q0: 0	 	
128	 	 	22	 Q0: 0	 	
129	 	 	24	 Q0: 0	 	
130	 	 	39	 Q0: 0	 	
131	 	 	32	 Q0: 0	 	
132	 	 	14	 Q0: 0	 	
133	 	 	33	 Q0: 0	 	
134	 	 	35	 Q0: 0	 	
135	 	 	14	 Q0: 0	 	
136	 	 	18	 Q0: 0	 	
137	 	 	28	 Q0: 0	 	
138	 	 	38	 Q0: 0	 	
139	 	 	22	 Q0: 0	 	
140	 	 	17	 Q0: 0	 	
141	 	 	37	 Q0: 0	 	
142	 	 	37	 Q0: 0	 	
143	 	 	16	 Q0: 0	 	
144	 	 	25	 Q0: 0	 	
145	 	 	23	 Q0: 0	 	
146	 	 	20	 Q0: 0	 	
147	 	 	22	 Q0: 0	 	
148	 	 	35	 Q0: 0	 	
149	 	 	22	 Q0: 0	 	
150	 	 	40	 Q0: 0	 	
151	 	 	16	 Q0: 0	 	
152	 	 	14	 Q0: 0	 	
153	 	 	25	 Q0: 0	 	
154	 	 	24	 Q0: 0	 	
155	 	 	20	 Q0: 0	 	
156	 	 	20	 Q0: 0	 	
157	 	 	33	 Q0: 0	 	
158	 	 	26	 Q0: 0	 	
159	 	 	18	 Q0: 0	 	
160	 	 	32	 Q0: 0	 	
161	 	 	34	 Q0: 0	 	
162	 	 	11	 Q0: 0	 	
163	 	 	16	 Q0: 0	 	
164	 	 	13	 Q0: 0	 	
165	 	 	21	 Q0: 0	 	
166	 	 	34	 Q0: 0	 	
167	 	 	26	 Q0: 0	 	
168	 	 	30	 Q0: 0	 	
169	 	 	21	 Q0: 0	 	
170	 	 	34	 Q0: 0	 	
171	 	 	10	 Q0: 0	 	
172	 	 	35	 Q0: 0	 	
173	 	 	18	 Q0: 0	 	
174	 	 	29	 Q0: 0	 	
175	 	 	23	 Q0: 0	 	
176	 	 	37	 Q0: 0	 	
177	 	 	37	 Q0: 0	 	
178	 	 	14	 Q0: 0	 	
179	 	 	40	 Q0: 0	 	
180	 	 	19	 Q0: 0	 	
181	 	 	20	 Q0: 0	 	
182	 	 	28	 Q0: 0	 	
183	 	 	35	 Q0: 0	 	
184	 	 	34	 Q0: 0	 	
185	 	 	16	 Q0: 0	 	
186	 	 	33	 Q0: 0	 	
187	 	 	31	 Q0: 0	 	
188	 	 	12	 Q0: 0	 	
189	 	 	13	 Q0: 0	 	
190	 	 	32	 Q0: 0	 	
191	 	 	17	 Q0: 0	 	
192	 	 	39	 Q0: 0	 	
193	 	 	34	 Q0: 0	 	
194	 	 	28	 Q0: 0	 	
195	 	 	36	 Q0: 0	 	
196	 	 	34	 Q0: 0	 	
197	 	 	14	 Q0: 0	 	
198	 	 	39	 Q0: 0	 	
199	 	 	34	 Q0: 0	 	
200	 	 	16	 Q0: 0	 	
201	 	 	33	 Q0: 0	 	
202	 	 	22	 Q0: 0	 	
203	 	 	24	 Q0: 0	 	
204	 	 	19	 Q0: 0	 	
205	 	 	15	 Q0: 0	 	
206	 	 	11	 Q0: 0	 	
207	 	 	19	 Q0: 0	 	
208	 	 	21	 Q0: 0	 	
209	 	 	22	 Q0: 0	 	
210	 	 	25	 Q0: 0	 	
211	 	 	31	 Q0: 0	 	
212	 	 	25	 Q0: 0	 	
213	 	 	25	 Q0: 0	 	
214	 	 	30	 Q0: 0	 	
215	 	 	20	 Q0: 0	 	
216	 	 	18	 Q0: 0	 	
217	 	 	27	 Q0: 0	 	
218	 	 	37	 Q0: 0	 	
219	 	 	37	 Q0: 0	 	
220	 	 	22	 Q0: 0	 	
221	 	 	18	 Q0: 0	 	
222	 	 	21	 Q0: 0	 	
223	 	 	20	 Q0: 0	 	
224	 	 	11	 Q0: 0	 	
225	 	 	19	 Q0: 0	 	
226	 	 	38	 Q0: 0	 	
227	 	 	9	 Q0: 0	 	
228	 	 	16	 Q0: 0	 	
229	 	 	35	 Q0: 0	 	
230	 	 	35	 Q0: 0	 	
231	 	 	35	 Q0: 0	 	
232	 	 	18	 Q0: 0	 	
233	 	 	37	 Q0: 0	 	
234	 	 	19	 Q0: 0	 	
235	 	 	28	 Q0: 0	 	
236	 	 	14	 Q0: 0	 	
237	 	 	14	 Q0: 0	 	
238	 	 	13	 Q0: 0	 	
239	 	 	39	 Q0: 0	 	
240	 	 	24	 Q0: 0	 	
241	 	 	21	 Q0: 0	 	
242	 	 	28	 Q0: 0	 	
243	 	 	11	 Q0: 0	 	
244	 	 	32	 Q0: 0	 	
245	 	 	14	 Q0: 0	 	
246	 	 	40	 Q0: 0	 	
247	 	 	33	 Q0: 0	 	
248	 	 	40	 Q0: 0	 	
249	 	 	28	 Q0: 0	 	
250	 	 	37	 Q0: 0	 	
251	 	 	18	 Q0: 0	 	
252	 	 	29	 Q0: 0	 	
253	 	 	11	 Q0: 0	 	
254	 	 	13	 Q0: 0	 	
255	 	 	30	 Q0: 0	 	
256	 	 	33	 Q0: 0	 	
257	 	 	11	 Q0: 0	 	
258	 	 	17	 Q0: 0	 	
259	 	 	30	 Q0: 0	 	
260	 	 	35	 Q0: 0	 	
261	 	 	22	 Q0: 0	 	
262	 	 	15	 Q0: 0	 	
263	 	 	33	 Q0: 0	 	
264	 	 	28	 Q0: 0	 	
265	 	 	12	 Q0: 0	 	
266	 	 	28	 Q0: 0	 	
267	 	 	33	 Q0: 0	 	
268	 	 	25	 Q0: 0	 	
269	 	 	28	 Q0: 0	 	
270	 	 	25	 Q0: 0	 	
271	 	 	13	 Q0: 0	 	
272	 	 	11	 Q0: 0	 	
273	 	 	33	 Q0: 0	 	
274	 	 	32	 Q0: 0	 	
275	 	 	13	 Q0: 0	 	
276	 	 	20	 Q0: 0	 	
277	 	 	25	 Q0: 0	 	
278	 	 	22	 Q0: 0	 	
279	 	 	35	 Q0: 0	 	
280	 	 	36	 Q0: 0	 	
281	 	 	24	 Q0: 0	 	
282	 	 	17	 Q0: 0	 	
283	 	 	18	 Q0: 0	 	
284	 	 	38	 Q0: 0	 	
285	 	 	38	 Q0: 0	 	
286	 	 	39	 Q0: 0	 	
287	 	 	12	 Q0: 0	 	
288	 	 	28	 Q0: 0	 	
289	 	 	20	 Q0: 0	 	
290	 	 	30	 Q0: 0	 	
291	 	 	12	 Q0: 0	 	
292	 	 	16	 Q0: 0	 	
293	 	 	31	 Q0: 0	 	
294	 	 	38	 Q0: 0	 	
295	 	 	9	 Q0: 0	 	
296	 	 	22	 Q0: 0	 	
297	 	 	40	 Q0: 0	 	
298	 	 	19	 Q0: 0	 	
299	 	 	11	 Q0: 0	 	
300	 	 	9	 Q0: 0	 	
301	 	 	18	 Q0: 0	 	
302	 	 	20	 Q0: 0	 	
303	 	 	33	 Q0: 0	 	
304	 	 	11	 Q0: 0	 	
305	 	 	14	 Q0: 0	 	
306	 	 	17	 Q0: 0	 	
307	 	 	22	 Q0: 0	 	
308	 	 	9	 Q0: 0	 	
309	 	 	15	 Q0: 0	 	
310	 	 	35	 Q0: 0	 	
311	 	 	18	 Q0: 0	 	
312	 	 	27	 Q0: 0	 	
313	 	 	24	 Q0: 0	 	
314	 	 	27	 Q0: 0	 	
315	 	 	33	 Q0: 0	 	
316	 	 	13	 Q0: 0	 	
317	 	 	15	 Q0: 0	 	
318	 	 	37	 Q0: 0	 	
319	 	 	37	 Q0: 0	 	
320	 	 	33	 Q0: 0	 	
321	 	 	10	 Q0: 0	 	
322	 	 	14	 Q0: 0	 	
323	 	 	29	 Q0: 0	 	
324	 	 	35	 Q0: 0	 	
325	 	 	27	 Q0: 0	 	
326	 	 	27	 Q0: 0	 	
327	 	 	34	 Q0: 0	 	
328	 	 	20	 Q0: 0	 	
329	 	 	9	 Q0: 0	 	
330	 	 	15	 Q0: 0	 	
331	 	 	30	 Q0: 0	 	
332	 	 	32	 Q0: 0	 	
333	 	 	31	 Q0: 0	 	
334	 	 	17	 Q0: 0	 	
335	 	 	16	 Q0: 0	 	
336	 	 	10	 Q0: 0	 	
337	 	 	35	 Q0: 0	 	
338	 	 	36	 Q0: 0	 	
339	 	 	33	 Q0: 0	 	
340	 	 	39	 Q0: 0	 	
341	 	 	34	 Q0: 0	 	
342	 	 	34	 Q0: 0	 	
343	 	 	21	 Q0: 0	 	
344	 	 	31	 Q0: 0	 	
345	 	 	11	 Q0: 0	 	
346	 	 	16	 Q0: 0	 	
347	 	 	24	 Q0: 0	 	
348	 	 	33	 Q0: 0	 	
349	 	 	11	 Q0: 0	 	
350	 	 	21	 Q0: 0	 	
351	 	 	40	 Q0: 0	 	
352	 	 	30	 Q0: 0	 	
353	 	 	36	 Q0: 0	 	
354	 	 	40	 Q0: 0	 	
355	 	 	39	 Q0: 0	 	
356	 	 	19	 Q0: 0	 	
357	 	 	35	 Q0: 0	 	
358	 	 	37	 Q0: 0	 	
359	 	 	27	 Q0: 0	 	
360	 	 	12	 Q0: 0	 	
361	 	 	17	 Q0: 0	 	
362	 	 	26	 Q0: 0	 	
363	 	 	30	 Q0: 0	 	
364	 	 	14	 Q0: 0	 	
365	 	 	12	 Q0: 0	 	
366	 	 	23	 Q0: 0	 	
367	 	 	12	 Q0: 0	 	
368	 	 	14	 Q0: 0	 	
369	 	 	9	 Q0: 0	 	
370	 	 	39	 Q0: 0	 	
371	 	 	36	 Q0: 0	 	
372	 	 	9	 Q0: 0	 	
373	 	 	37	 Q0: 0	 	
374	 	 	15	 Q0: 0	 	
375	 	 	30	 Q0: 0	 	
376	 	 	20	 Q0: 0	 	
377	 	 	24	 Q0: 0	 	
378	 	 	21	 Q0: 0	 	
379	 	 	38	 Q0: 0	 	
380	 	 	20	 Q0: 0	 	
381	 	 	20	 Q0: 0	 	
382	 	 	17	 Q0: 0	 	
383	 	 	10	 Q0: 0	 	
384	 	 	17	 Q0: 0	 	
385	 	 	34	 Q0: 0	 	
386	 	 	11	 Q0: 0	 	
387	 	 	16	 Q0: 0	 	
388	 	 	27	 Q0: 0	 	
389	 	 	17	 Q0: 0	 	
390	 	 	31	 Q0: 0	 	
391	 	 	16	 Q0: 0	 	
392	 	 	35	 Q0: 0	 	
393	 	 	30	 Q0: 0	 	
394	 	 	18	 Q0: 0	 	
395	 	 	34	 Q0: 0	 	
396	 	 	39	 Q0: 0	 	
397	 	 	21	 Q0: 0	 	
398	 	 	11	 Q0: 0	 	
399	 	 	13	 Q0: 0	 	
400	 	 	21	 Q0: 0	 	
401	 	 	30	 Q0: 0	 	
402	 	 	22	 Q0: 0	 	
403	 	 	18	 Q0: 0	 	
404	 	 	19	 Q0: 0	 	
405	 	 	40	 Q0: 0	 	
406	 	 	19	 Q0: 0	 	
407	 	 	10	 Q0: 0	 	
408	 	 	32	 Q0: 0	 	
409	 	 	12	 Q0: 0	 	
410	 	 	22	 Q0: 0	 	
411	 	 	25	 Q0: 0	 	
412	 	 	37	 Q0: 0	 	
413	 	 	31	 Q0: 0	 	
414	 	 	26	 Q0: 0	 	
415	 	 	25	 Q0: 0	 	
416	 	 	14	 Q0: 0	 	
417	 	 	37	 Q0: 0	 	
418	 	 	16	 Q0: 0	 	
419	 	 	11	 Q0: 0	 	
420	 	 	28	 Q0: 0	 	
421	 	 	36	 Q0: 0	 	
422	 	 	10	 Q0: 0	 	
423	 	 	11	 Q0: 0	 	
424	 	 	11	 Q0: 0	 	
425	 	 	40	 Q0: 0	 	
426	 	 	26	 Q0: 0	 	
427	 	 	37	 Q0: 0	 	
428	 	 	17	 Q0: 0	 	
429	 	 	28	 Q0: 0	 	
430	 	 	14	 Q0: 0	 	
431	 	 	26	 Q0: 0	 	
432	 	 	40	 Q0: 0	 	
433	 	 	16	 Q0: 0	 	
434	 	 	26	 Q0: 0	 	
435	 	 	35	 Q0: 0	 	
436	 	 	33	 Q0: 0	 	
437	 	 	14	 Q0: 0	 	
438	 	 	12	 Q0: 0	 	
439	 	 	10	 Q0: 0	 	
440	 	 	19	 Q0: 0	 	
441	 	 	33	 Q0: 0	 	
442	 	 	19	 Q0: 0	 	
443	 	 	32	 Q0: 0	 	
444	 	 	32	 Q0: 0	 	
445	 	 	12	 Q0: 0	 	
446	 	 	11	 Q0: 0	 	
447	 	 	38	 Q0: 0	 	
448	 	 	22	 Q0: 0	 	
449	 	 	17	 Q0: 0	 	
450	 	 	37	 Q0: 0	 	
451	 	 	11	 Q0: 0	 	
452	 	 	15	 Q0: 0	 	
453	 	 	18	 Q0: 0	 	
454	 	 	25	 Q0: 0	 	
455	 	 	15	 Q0: 0	 	
456	 	 	10	 Q0: 0	 	
457	 	 	33	 Q0: 0	 	
458	 	 	13	 Q0: 0	 	
459	 	 	11	 Q0: 0	 	
460	 	 	35	 Q0: 0	 	
461	 	 	22	 Q0: 0	 	
462	 	 	16	 Q0: 0	 	
463	 	 	19	 Q0: 0	 	
464	 	 	12	 Q0: 0	 	
465	 	 	32	 Q0: 0	 	
466	 	 	18	 Q0: 0	 	
467	 	 	40	 Q0: 0	 	
468	 	 	18	 Q0: 0	 	
469	 	 	26	 Q0: 0	 	
470	 	 	25	 Q0: 0	 	
471	 	 	20	 Q0: 0	 	
472	 	 	12	 Q0: 0	 	
473	 	 	28	 Q0: 0	 	
474	 	 	23	 Q0: 0	 	
475	 	 	35	 Q0: 0	 	
476	 	 	27	 Q0: 0	 	
477	 	 	28	 Q0: 0	 	
478	 	 	32	 Q0: 0	 	
479	 	 	25	 Q0: 0	 	
480	 	 	12	 Q0: 0	 	
481	 	 	17	 Q0: 0	 	
482	 	 	27	 Q0: 0	 	
483	 	 	18	 Q0: 0	 	
484	 	 	17	 Q0: 0	 	
485	 	 	36	 Q0: 0	 	
486	 	 	40	 Q0: 0	 	
487	 	 	18	 Q0: 0	 	
488	 	 	35	 Q0: 0	 	
489	 	 	31	 Q0: 0	 	
490	 	 	26	 Q0: 0	 	
491	 	 	28	 Q0: 0	 	
492	 	 	13	 Q0: 0	 	
493	 	 	39	 Q0: 0	 	
494	 	 	32	 Q0: 0	 	
495	 	 	14	 Q0: 0	 	
496	 	 	36	 Q0: 0	 	
497	 	 	16	 Q0: 0	 	
498	 	 	30	 Q0: 0	 	
499	 	 	27	 Q0: 0	 	
500	 	 	34	 Q0: 0	 	
========================================================== 
